100
128
4
50
28
30
34
37
56
61
26
56
4
20
48
55
52
38
7
15
13
26
46
21
1
13
23
58
20
27
48
16
28
17
28
57
37
19
18
32
42
40
45
59
59
21
64
31
48
33
33
64
47
23
23
34
64
64
31
23
14
5
27
52
49
39
1
1
41
54
2
6
13
58
20
53
64
63
50
5
2
51
36
64
63
3
47
36
43
64
8
55
40
45
64
64
43
63
63
38
64
64